nNurses = 160;
nHours = 40;
minHours = 10;
maxHours = 10;
maxConsec = 8;
maxPresence = 12;
demand = [29, 25, 29, 33, 33, 30, 32, 36, 36, 35, 30, 31, 34, 36, 34, 36, 38, 33, 35, 37, 39, 40, 39, 39, 36, 32, 32, 31, 36, 38, 33, 34, 34, 29, 31, 36, 35, 32, 37, 33];
